./orca_D00021.gbw      
./orca_D00021.scfp     
 4           
0           
0           
-1           
-1           
-1           
-1           
-1           
-1           
-1           
-1           
-1           
-1           
-1           
-1           
-1           
-1           
-1           
-1           
-1           
-1           
-1           
-1           
-1           
-1           
-1           
-1           
-1           
-1           
-1           
-1           
-1           
-1           
-1           
-1           
-1           
-1           
-1           
-1           
-1           
-1           
-1           
-1           
-1           
-1           
-1           
-1           
-1           
-1           
-1           
-1           
-1           
-1           
-1           
-1           
-1           
-1           
-1           
-1           
-1           
-1           
-1           
-1           
-1           
-1           
-1           
-1           
-1           
-1           
-1           
-1           
-1           
-1           
-1           
-1           
-1           
-1           
-1           
-1           
-1           
-1           
-1           
-1           
-1           
-1           
-1           
-1           
-1           
-1           
-1           
-1           
-1           
-1           
-1           
-1           
-1           
-1           
-1           
-1           
-1           
-1           
-1           
-1           
-1           
-1           
-1           
-1           
-1           
-1           
-1           
-1           
-1           
-1           
-1           
-1           
-1           
-1           
-1           
-1           
-1           
-1           
-1           
-1           
-1           
-1           
-1           
-1           
-1           
-1           
-1           
-1           
-1           
-1           
-1           
-1           
-1           
-1           
-1           
-1           
-1           
-1           
-1           
-1           
-1           
-1           
-1           
-1           
-1           
-1           
-1           
-1           
-1           
-1           
-1           
-1           
-1           
-1           
-1           
-1           
-1           
-1           
-1           
-1           
-1           
-1           
-1           
-1           
-1           
-1           
-1           
-1           
-1           
-1           
-1           
-1           
-1           
-1           
-1           
-1           
-1           
-1           
-1           
-1           
-1           
-1           
-1           
-1           
-1           
-1           
-1           
-1           
-1           
-1           
-1           
-1           
-1           
-1           
-1           
-1           
-1           
-1           
-1           
-1           
-1           
-1           
-1           
-1           
-1           
-1           
-1           
-1           
-1           
-1           
-1           
-1           
-1           
-1           
-1           
-1           
-1           
-1           
-1           
-1           
-1           
-1           
-1           
-1           
-1           
-1           
-1           
-1           
-1           
-1           
-1           
-1           
-1           
-1           
-1           
-1           
-1           
-1           
-1           
-1           
-1           
-1           
-1           
-1           
-1           
-1           
-1           
-1           
-1           
-1           
-1           
-1           
-1           
-1           
-1           
-1           
-1           
-1           
-1           
-1           
-1           
-1           
-1           
-1           
-1           
-1           
-1           
-1           
-1           
-1           
-1           
-1           
-1           
-1           
-1           
-1           
-1           
-1           
-1           
-1           
-1           
-1           
-1           
-1           
-1           
-1           
-1           
-1           
-1           
-1           
-1           
-1           
-1           
-1           
-1           
-1           
-1           
-1           
-1           
-1           
-1           
-1           
-1           
-1           
-1           
-1           
-1           
-1           
-1           
-1           
-1           
-1           
-1           
-1           
-1           
-1           
-1           
-1           
-1           
-1           
-1           
-1           
-1           
-1           
-1           
-1           
-1           
-1           
-1           
-1           
-1           
-1           
-1           
-1           
-1           
-1           
-1           
-1           
-1           
-1           
-1           
-1           
-1           
-1           
-1           
-1           
-1           
-1           
-1           
-1           
-1           
-1           
-1           
-1           
-1           
-1           
-1           
-1           
-1           
-1           
-1           
-1           
-1           
-1           
-1           
-1           
-1           
-1           
-1           
-1           
-1           
-1           
-1           
-1           
-1           
-1           
-1           
-1           
-1           
-1           
-1           
-1           
-1           
-1           
-1           
-1           
-1           
-1           
-1           
-1           
-1           
-1           
-1           
-1           
-1           
-1           
-1           
-1           
-1           
-1           
-1           
-1           
-1           
-1           
-1           
-1           
-1           
-1           
-1           
-1           
-1           
-1           
-1           
-1           
-1           
-1           
-1           
-1           
-1           
-1           
-1           
-1           
-1           
-1           
-1           
-1           
-1           
-1           
-1           
-1           
-1           
-1           
-1           
-1           
-1           
-1           
-1           
-1           
-1           
-1           
-1           
-1           
-1           
-1           
-1           
-1           
-1           
-1           
-1           
-1           
-1           
-1           
-1           
-1           
-1           
-1           
-1           
-1           
-1           
-1           
-1           
-1           
-1           
-1           
-1           
-1           
-1           
-1           
-1           
-1           
-1           
-1           
-1           
-1           
-1           
-1           
-1           
-1           
-1           
-1           
-1           
-1           
-1           
-1           
-1           
-1           
-1           
-1           
-1           
-1           
-1           
-1           
-1           
-1           
-1           
-1           
-1           
-1           
-1           
-1           
-1           
-1           
-1           
-1           
-1           
-1           
-1           
-1           
-1           
-1           
-1           
-1           
-1           
-1           
0           
0           
0           
