./orca_D00020.gbw      
./orca_D00020.scfp     
 4           
0           
0           
-1           
-1           
-1           
-1           
-1           
-1           
-1           
-1           
-1           
-1           
-1           
-1           
-1           
-1           
-1           
-1           
-1           
-1           
-1           
-1           
-1           
-1           
-1           
-1           
-1           
-1           
-1           
-1           
-1           
-1           
-1           
-1           
-1           
-1           
-1           
-1           
-1           
-1           
-1           
-1           
-1           
-1           
-1           
-1           
-1           
-1           
-1           
-1           
-1           
-1           
-1           
-1           
-1           
-1           
-1           
-1           
-1           
-1           
-1           
-1           
-1           
-1           
-1           
-1           
-1           
-1           
-1           
-1           
-1           
-1           
-1           
-1           
-1           
-1           
-1           
-1           
-1           
-1           
-1           
-1           
-1           
-1           
-1           
-1           
-1           
-1           
-1           
-1           
-1           
-1           
-1           
-1           
-1           
-1           
-1           
-1           
-1           
-1           
-1           
-1           
-1           
-1           
-1           
-1           
-1           
-1           
-1           
-1           
-1           
-1           
-1           
-1           
-1           
-1           
-1           
-1           
-1           
-1           
-1           
-1           
-1           
-1           
-1           
-1           
-1           
-1           
-1           
-1           
-1           
-1           
-1           
-1           
-1           
-1           
-1           
-1           
-1           
-1           
-1           
-1           
-1           
-1           
-1           
-1           
-1           
-1           
-1           
-1           
-1           
-1           
-1           
-1           
-1           
-1           
-1           
-1           
-1           
-1           
-1           
-1           
-1           
-1           
-1           
-1           
-1           
-1           
-1           
-1           
-1           
-1           
-1           
-1           
-1           
-1           
-1           
-1           
-1           
-1           
-1           
-1           
-1           
-1           
-1           
-1           
-1           
-1           
-1           
-1           
-1           
-1           
-1           
-1           
-1           
-1           
-1           
-1           
-1           
-1           
-1           
-1           
-1           
-1           
-1           
-1           
-1           
-1           
-1           
-1           
-1           
-1           
-1           
-1           
-1           
-1           
-1           
-1           
-1           
-1           
-1           
-1           
-1           
-1           
-1           
-1           
-1           
-1           
-1           
-1           
-1           
-1           
-1           
-1           
-1           
-1           
-1           
-1           
-1           
-1           
-1           
-1           
-1           
-1           
-1           
-1           
-1           
-1           
-1           
-1           
-1           
-1           
-1           
-1           
-1           
-1           
-1           
-1           
-1           
-1           
-1           
-1           
-1           
-1           
-1           
-1           
-1           
-1           
-1           
-1           
-1           
-1           
-1           
-1           
-1           
-1           
-1           
-1           
-1           
-1           
-1           
-1           
-1           
-1           
-1           
-1           
-1           
-1           
-1           
-1           
-1           
-1           
-1           
-1           
-1           
-1           
-1           
-1           
-1           
-1           
-1           
-1           
-1           
-1           
-1           
-1           
-1           
-1           
-1           
-1           
-1           
-1           
-1           
-1           
-1           
-1           
-1           
-1           
-1           
-1           
-1           
-1           
-1           
-1           
-1           
-1           
-1           
-1           
-1           
-1           
-1           
-1           
-1           
-1           
-1           
-1           
-1           
-1           
-1           
-1           
-1           
-1           
-1           
-1           
-1           
-1           
-1           
-1           
-1           
-1           
-1           
-1           
-1           
-1           
-1           
-1           
-1           
-1           
-1           
-1           
-1           
-1           
-1           
-1           
-1           
-1           
-1           
-1           
-1           
-1           
-1           
-1           
-1           
-1           
-1           
-1           
-1           
-1           
-1           
-1           
-1           
-1           
-1           
-1           
-1           
-1           
-1           
-1           
-1           
-1           
-1           
-1           
-1           
-1           
-1           
-1           
-1           
-1           
-1           
-1           
-1           
-1           
-1           
-1           
-1           
-1           
-1           
-1           
-1           
-1           
-1           
-1           
-1           
-1           
-1           
-1           
-1           
-1           
-1           
-1           
-1           
-1           
-1           
-1           
-1           
-1           
-1           
-1           
-1           
-1           
-1           
-1           
-1           
-1           
-1           
-1           
-1           
-1           
-1           
-1           
-1           
-1           
-1           
-1           
-1           
-1           
-1           
-1           
-1           
-1           
-1           
-1           
-1           
-1           
-1           
-1           
-1           
-1           
-1           
-1           
-1           
-1           
-1           
-1           
-1           
-1           
-1           
-1           
-1           
-1           
-1           
-1           
-1           
-1           
-1           
-1           
-1           
-1           
-1           
-1           
-1           
-1           
-1           
-1           
-1           
-1           
-1           
-1           
-1           
-1           
-1           
-1           
-1           
-1           
-1           
-1           
-1           
-1           
-1           
-1           
-1           
-1           
-1           
-1           
-1           
-1           
-1           
-1           
-1           
-1           
-1           
-1           
-1           
-1           
-1           
-1           
0           
0           
0           
