./orca_D00025.gbw      
./orca_D00025.scfp     
 4           
0           
0           
-1           
-1           
-1           
-1           
-1           
-1           
-1           
-1           
-1           
-1           
-1           
-1           
-1           
-1           
-1           
-1           
-1           
-1           
-1           
-1           
-1           
-1           
-1           
-1           
-1           
-1           
-1           
-1           
-1           
-1           
-1           
-1           
-1           
-1           
-1           
-1           
-1           
-1           
-1           
-1           
-1           
-1           
-1           
-1           
-1           
-1           
-1           
-1           
-1           
-1           
-1           
-1           
-1           
-1           
-1           
-1           
-1           
-1           
-1           
-1           
-1           
-1           
-1           
-1           
-1           
-1           
-1           
-1           
-1           
-1           
-1           
-1           
-1           
-1           
-1           
-1           
-1           
-1           
-1           
-1           
-1           
-1           
-1           
-1           
-1           
-1           
-1           
-1           
-1           
-1           
-1           
-1           
-1           
-1           
-1           
-1           
-1           
-1           
-1           
-1           
-1           
-1           
-1           
-1           
-1           
-1           
-1           
-1           
-1           
-1           
-1           
-1           
-1           
-1           
-1           
-1           
-1           
-1           
-1           
-1           
-1           
-1           
-1           
-1           
-1           
-1           
-1           
-1           
-1           
-1           
-1           
-1           
-1           
-1           
-1           
-1           
-1           
-1           
-1           
-1           
-1           
-1           
-1           
-1           
-1           
-1           
-1           
-1           
-1           
-1           
-1           
-1           
-1           
-1           
-1           
-1           
-1           
-1           
-1           
-1           
-1           
-1           
-1           
-1           
-1           
-1           
-1           
-1           
-1           
-1           
-1           
-1           
-1           
-1           
-1           
-1           
-1           
-1           
-1           
-1           
-1           
-1           
-1           
-1           
-1           
-1           
-1           
-1           
-1           
-1           
-1           
-1           
-1           
-1           
-1           
-1           
-1           
-1           
-1           
-1           
-1           
-1           
-1           
-1           
-1           
-1           
-1           
-1           
-1           
-1           
-1           
-1           
-1           
-1           
-1           
-1           
-1           
-1           
-1           
-1           
-1           
-1           
-1           
-1           
-1           
-1           
-1           
-1           
-1           
-1           
-1           
-1           
-1           
-1           
-1           
-1           
-1           
-1           
-1           
-1           
-1           
-1           
-1           
-1           
-1           
-1           
-1           
-1           
-1           
-1           
-1           
-1           
-1           
-1           
-1           
-1           
-1           
-1           
-1           
-1           
-1           
-1           
-1           
-1           
-1           
-1           
-1           
-1           
-1           
-1           
-1           
-1           
-1           
-1           
-1           
-1           
-1           
-1           
-1           
-1           
-1           
-1           
-1           
-1           
-1           
-1           
-1           
-1           
-1           
-1           
-1           
-1           
-1           
-1           
-1           
-1           
-1           
-1           
-1           
-1           
-1           
-1           
-1           
-1           
-1           
-1           
-1           
-1           
-1           
-1           
-1           
-1           
-1           
-1           
-1           
-1           
-1           
-1           
-1           
-1           
-1           
-1           
-1           
-1           
-1           
-1           
-1           
-1           
-1           
-1           
-1           
-1           
-1           
-1           
-1           
-1           
-1           
-1           
-1           
-1           
-1           
-1           
-1           
-1           
-1           
-1           
-1           
-1           
-1           
-1           
-1           
-1           
-1           
-1           
-1           
-1           
-1           
-1           
-1           
-1           
-1           
-1           
-1           
-1           
-1           
-1           
-1           
-1           
-1           
-1           
-1           
-1           
-1           
-1           
-1           
-1           
-1           
-1           
-1           
-1           
-1           
-1           
-1           
-1           
-1           
-1           
-1           
-1           
-1           
-1           
-1           
-1           
-1           
-1           
-1           
-1           
-1           
-1           
-1           
-1           
-1           
-1           
-1           
-1           
-1           
-1           
-1           
-1           
-1           
-1           
-1           
-1           
-1           
-1           
-1           
-1           
-1           
-1           
-1           
-1           
-1           
-1           
-1           
-1           
-1           
-1           
-1           
-1           
-1           
-1           
-1           
-1           
-1           
-1           
-1           
-1           
-1           
-1           
-1           
-1           
-1           
-1           
-1           
-1           
-1           
-1           
-1           
-1           
-1           
-1           
-1           
-1           
-1           
-1           
-1           
-1           
-1           
-1           
-1           
-1           
-1           
-1           
-1           
-1           
-1           
-1           
-1           
-1           
-1           
-1           
-1           
-1           
-1           
-1           
-1           
-1           
-1           
-1           
-1           
-1           
-1           
-1           
-1           
-1           
-1           
-1           
-1           
-1           
-1           
-1           
-1           
-1           
-1           
-1           
-1           
-1           
-1           
-1           
-1           
-1           
-1           
-1           
-1           
-1           
-1           
-1           
-1           
-1           
-1           
-1           
-1           
-1           
-1           
-1           
0           
0           
0           
